VACCINE = Vaccine(1..2);
m = 24;
age = [BABY, CHILD, AGED, CHILD, BABY, BABY, SENIOR, CHILD, ANCIENT, ADULT, ANCIENT, YOUTH, ADULT, AGED, ADULT, ANCIENT, YOUTH, SENIOR, BABY, AGED, AGED, ANCIENT, CHILD, SENIOR];
gender = [FEMALE, MALE, MALE, OTHER, MALE, OTHER, MALE, FEMALE, OTHER, OTHER, FEMALE, FEMALE, OTHER, FEMALE, MALE, MALE, OTHER, OTHER, MALE, FEMALE, MALE, FEMALE, OTHER, FEMALE];
health = [COMPROMISED, POOR, GOOD, COMPROMISED, POOR, COMPROMISED, GOOD, POOR, GOOD, GOOD, COMPROMISED, COMPROMISED, COMPROMISED, GOOD, GOOD, POOR, POOR, COMPROMISED, COMPROMISED, COMPROMISED, COMPROMISED, GOOD, GOOD, GOOD];
exposure = [EXTREME, EXTREME, AVERAGE, EXTREME, EXTREME, LOW, HIGH, AVERAGE, EXTREME, EXTREME, EXTREME, LOW, AVERAGE, AVERAGE, HIGH, AVERAGE, HIGH, AVERAGE, EXTREME, EXTREME, EXTREME, LOW, HIGH, LOW];
size = [11, 9, 8, 8, 11, 9, 12, 12, 12, 12, 9, 10, 7, 12, 9, 11, 11, 12, 10, 11, 11, 9, 9, 10];
minsize = 7;
age_group_min = [1, 1, 0, 1, 1, 1, 0];
age_group_max = [16, 8, 16, 16, 9, 21, 18];
max_people_diff = 138;
max_share_vaccines = 2;
health_information = {7, 11, 20};
exposure_information = {4, 13, 20, 21};